3 48 1 10
15 12 4 10 13 7 15 16 4 13 12 20 12 4 20 14 17 6 9 14 14 5 9 17 5 8 5 6 4 10 10 8 11 12 1 15 1 19 7 19 9 8 7 2 1 10 1 2 
6.55 10.43 3.86 0.68 5.57 13.25 13.1 11.66 0.12 6.48 11.19 12.68 11.89 10.63 1.21 7.62 8.71 13.39 2.44 0.25 3.04 14.05 3.91 0.57 8.86 13.12 0.01 6.67 6.83 10.31 5.04 8.57 11.52 12.86 10.98 13.59 12.54 1.21 14.86 2.14 7.9 5.39 0.27 4.18 14.72 6.88 1.24 11.31 
8 8 8 8 8 8 8 8 8 8 8 8 8 8 8 8 8 8 8 8 8 8 8 8 8 8 8 8 8 8 8 8 8 8 8 8 8 8 8 8 8 8 8 8 8 8 8 8 
14.68 9.56 12.65 11.31 3.09 10.29 5.92 5.05 9.13 5.43 6.71 4.16 12.39 11.37 0.62 4.45 8.8 9.43 2.03 7.72 6.73 1.61 12.21 6.67 13.25 3.99 2.22 5.84 11.27 15.71 1.15 13.91 13.41 3.52 6.07 15.57 3.08 5.72 9.78 9.96 0.53 11.2 13.47 13.33 14.87 0.14 15.65 4.28 
1 1 1 1 1 1 1 1 1 1 1 1 1 1 1 1 1 1 1 1 1 1 1 1 1 1 1 1 1 1 1 1 1 1 1 1 1 1 1 1 1 1 1 1 1 1 1 1 
1 1 1 1 1 1 1 1 1 1 1 1 1 1 1 1 1 1 1 1 1 1 1 1 1 1 1 1 1 1 1 1 1 1 1 1 1 1 1 1 1 1 1 1 1 1 1 1 
1 1 1 1 1 1 1 1 1 1 1 1 1 1 1 1 1 1 1 1 1 1 1 1 1 1 1 1 1 1 1 1 1 1 1 1 1 1 1 1 1 1 1 1 1 1 1 1 
0.01 0.01 0.01 0.01 0.01 0.01 0.01 0.01 0.01 0.01 0.01 0.01 0.01 0.01 0.01 0.01 0.01 0.01 0.01 0.01 0.01 0.01 0.01 0.01 0.01 0.01 0.01 0.01 0.01 0.01 0.01 0.01 0.01 0.01 0.01 0.01 0.01 0.01 0.01 0.01 0.01 0.01 0.01 0.01 0.01 0.01 0.01 0.01 
0.02 0.02 0.02 0.02 0.02 0.02 0.02 0.02 0.02 0.02 0.02 0.02 0.02 0.02 0.02 0.02 0.02 0.02 0.02 0.02 0.02 0.02 0.02 0.02 0.02 0.02 0.02 0.02 0.02 0.02 0.02 0.02 0.02 0.02 0.02 0.02 0.02 0.02 0.02 0.02 0.02 0.02 0.02 0.02 0.02 0.02 0.02 0.02 
1 1 1 1 1 1 1 1 1 1 1 1 1 1 1 1 1 1 1 1 1 1 1 1 1 1 1 1 1 1 1 1 1 1 1 1 1 1 1 1 1 1 1 1 1 1 1 1 
